(set-info :smt-lib-version 2.6)
(set-logic QF_S)
(set-info :source |
Generated by: Hongjian Jiang, Oliver Markgraf, Daniel Stan, Anthony W. Lin, Philipp Ruemmer
Generated on: 2025-04-11
Application: Using String Solvers to solve RMC problems encoded as CHC over Strings
Target solver: cvc5, OSTRICH, Z3, Z3alpha, Z3-noodler
Time limit: 60.0
Benchmarks are extracted by running HornStr https://arg-git.informatik.uni-kl.de/pub/string-chc-lib on all benchmarks
provided in the repository and gathering the string queries sent to the string solvers.
|)
(declare-fun varout () String)
(assert (let ((a!1 (re.* (re.union (re.union (str.to_re "0") (str.to_re "1"))
                           (str.to_re "2")))))
  (str.in_re varout a!1)))
(declare-fun varin () String)
(assert (let ((a!1 (re.* (re.union (re.union (str.to_re "0") (str.to_re "1"))
                           (str.to_re "2")))))
  (str.in_re varin a!1)))
(declare-fun X () String)
(declare-fun reg3 () String)
(declare-fun Y () String)
(declare-fun reg0 () String)
(declare-fun reg1 () String)
(declare-fun reg2 () String)
(declare-fun isin () Bool)
(declare-fun isout () Bool)
(assert (and true
     (= X reg3)
     (= Y reg3)
     (str.in_re reg0 (re.* (str.to_re "1")))
     (str.in_re reg1 (re.* (str.to_re "0")))
     (str.in_re reg2 (re.* (str.to_re "1")))
     (str.in_re reg3 (re.* (str.to_re "0")))
     (= X varin)
     isin
     (= Y varout)
     isout))
(push 1)
(assert (let ((a!1 (re.union (str.to_re "")
                     (re.++ (str.to_re "0") (re.* (str.to_re "0")))))
      (a!2 (re.++ (str.to_re "0")
                  (re.++ (re.* (str.to_re "0")) (str.to_re "1"))))
      (a!3 (re.* (re.union (re.union (str.to_re "0") (str.to_re "1"))
                           (str.to_re "2"))))
      (a!7 (re.++ (str.to_re "0")
                  (re.++ (re.* (str.to_re "0")) (str.to_re "2")))))
(let ((a!4 (re.++ (re.union (re.union (str.to_re "0") (str.to_re "1"))
                            (str.to_re "2"))
                  a!3))
      (a!10 (re.++ (re.++ (re.* (str.to_re "0")) (re.union (str.to_re "2") a!7))
                   (str.to_re "1"))))
(let ((a!5 (re.++ (re.++ (re.* (str.to_re "0")) (re.union (str.to_re "1") a!2))
                  (re.++ a!3 (re.union (str.to_re "") a!4))))
      (a!8 (re.++ (re.union (str.to_re "0") (str.to_re "2"))
                  (re.++ a!3 (re.union (str.to_re "") a!4))))
      (a!11 (re.++ (re.union (str.to_re "1") (str.to_re "2"))
                   (re.++ a!3 (re.union (str.to_re "") a!4)))))
(let ((a!6 (re.union (re.++ (re.* (str.to_re "0")) a!1) a!5))
      (a!9 (re.++ (re.++ (re.* (str.to_re "0")) (re.union (str.to_re "2") a!7))
                  (re.union (str.to_re "") a!8)))
      (a!12 (re.++ (str.to_re "0") (re.++ (re.* (str.to_re "0")) a!11))))
(let ((a!13 (re.++ a!10 (re.++ (re.* (str.to_re "0")) (re.union a!11 a!12)))))
  (str.in_re varin (re.union (re.union a!6 a!9) a!13))))))))
(assert (let ((a!1 (re.++ (str.to_re "0")
                  (re.++ (re.* (str.to_re "0")) (str.to_re "2"))))
      (a!3 (re.union (str.to_re "")
                     (re.++ (str.to_re "0") (re.* (str.to_re "0"))))))
(let ((a!2 (re.++ (re.++ (re.* (str.to_re "0")) (re.union (str.to_re "2") a!1))
                  (str.to_re "1"))))
(let ((a!4 (re.++ a!2 (re.++ (re.* (str.to_re "0")) a!3))))
  (str.in_re varout a!4)))))
(set-info :status unknown)
(check-sat)
